c weights 1 1 1 1 0.0 1.0 1 1 1 1 1.0 0.0 1 1 1 1 0.0 1.0 1 1 1 1 1.0 0.0 1 1 1 1 0.0 1.0 1 1 1 1 1.0 0.0 1 1 1 1 0.0 1.0 1 1 1 1 1.0 0.0 1 1 1 1 0.0 1.0 1 1 1 1 1.0 0.0 1 1 1 1 0.0 1.0 1 1 1 1 1.0 0.0 1 1 1 1 0.0 1.0 1 1 1 1 1.0 0.0 1 1 1 1 0.0 1.0 1 1 1 1 1 1 1 1 1 1 1 1 1.0 0.0 1.0 0.0 1.0 0.0 1.0 0.0 1.0 0.0 1.0 0.0 1.0 0.0 1 1 1 1 0.0 1.0 1 1 1 1 1 1 1 1 1.0 0.0 1.0 0.0 1.0 0.0 1 1 1 1 0.0 1.0 1 1 1 1 1 1 1 1 1.0 0.0 1.0 0.0 1.0 0.0 1 1 1 1 0.0 1.0 1 1 1 1 1.0 0.0 1 1 1 1 0.0 1.0 1 1 1 1 1.0 0.0 0.0 1.0 0.3 0.7 0.0 1.0 0.3 0.7 0.0 1.0 0.3 0.7 0.0 1.0 0.0 1.0 0.0 1.0 0.4 0.6 0.0 1.0 0.0 1.0 0.0 1.0 0.4 0.6 0.0 1.0 0.0 1.0 0.0 1.0 0.4 0.6 0.0 1.0 0.0 1.0 0.0 1.0 0.4 0.6 0.2 0.8 0.1 0.9 0.2 0.8 0.1 0.9 0.2 0.8 0.0 1.0 1.0 0.0 0.1 0.9 0.1 0.9 0.0 1.0 1.0 0.0
p cnf 123 191
1 2 0
-1 -2 0
1 3 -4 0
2 -3 -4 0
1 6 -5 0
2 -6 -5 0
7 8 0
-7 -8 0
7 9 -10 0
8 -9 -10 0
7 12 -11 0
8 -12 -11 0
13 14 0
-13 -14 0
13 15 -16 0
14 -15 -16 0
13 18 -17 0
14 -18 -17 0
19 20 0
-19 -20 0
19 21 -22 0
20 -21 -22 0
19 24 -23 0
20 -24 -23 0
25 26 0
-25 -26 0
25 27 -28 0
26 -27 -28 0
25 30 -29 0
26 -30 -29 0
31 32 0
-31 -32 0
31 33 -34 0
32 -33 -34 0
31 36 -35 0
32 -36 -35 0
37 38 0
-37 -38 0
37 39 -40 0
38 -39 -40 0
37 42 -41 0
38 -42 -41 0
43 44 0
-43 -44 0
43 45 -46 -48 -50 0
44 -45 -46 -48 -50 0
43 52 -46 -48 -51 0
44 -52 -46 -48 -51 0
43 53 -46 -49 -50 0
44 -53 -46 -49 -50 0
43 54 -46 -49 -51 0
44 -54 -46 -49 -51 0
43 55 -47 -48 -50 0
44 -55 -47 -48 -50 0
43 56 -47 -48 -51 0
44 -56 -47 -48 -51 0
43 57 -47 -49 -50 0
44 -57 -47 -49 -50 0
43 58 -47 -49 -51 0
44 -58 -47 -49 -51 0
59 60 0
-59 -60 0
59 61 -62 -64 0
60 -61 -62 -64 0
59 66 -62 -65 0
60 -66 -62 -65 0
59 67 -63 -64 0
60 -67 -63 -64 0
59 68 -63 -65 0
60 -68 -63 -65 0
69 70 0
-69 -70 0
69 71 -72 -74 0
70 -71 -72 -74 0
69 76 -72 -75 0
70 -76 -72 -75 0
69 77 -73 -74 0
70 -77 -73 -74 0
69 78 -73 -75 0
70 -78 -73 -75 0
79 80 0
-79 -80 0
79 81 -82 0
80 -81 -82 0
79 84 -83 0
80 -84 -83 0
85 86 0
-85 -86 0
85 87 -88 0
86 -87 -88 0
85 90 -89 0
86 -90 -89 0
46 47 0
-46 -47 0
46 91 -1 0
47 -91 -1 0
46 92 -2 0
47 -92 -2 0
82 83 0
-82 -83 0
82 93 -7 0
83 -93 -7 0
82 94 -8 0
83 -94 -8 0
88 89 0
-88 -89 0
88 95 -13 0
89 -95 -13 0
88 96 -14 0
89 -96 -14 0
64 65 0
-64 -65 0
64 97 -85 -31 0
65 -97 -85 -31 0
64 98 -85 -32 0
65 -98 -85 -32 0
64 99 -86 -31 0
65 -99 -86 -31 0
64 100 -86 -32 0
65 -100 -86 -32 0
50 51 0
-50 -51 0
50 101 -59 -19 0
51 -101 -59 -19 0
50 102 -59 -20 0
51 -102 -59 -20 0
50 103 -60 -19 0
51 -103 -60 -19 0
50 104 -60 -20 0
51 -104 -60 -20 0
72 73 0
-72 -73 0
72 105 -79 -37 0
73 -105 -79 -37 0
72 106 -79 -38 0
73 -106 -79 -38 0
72 107 -80 -37 0
73 -107 -80 -37 0
72 108 -80 -38 0
73 -108 -80 -38 0
48 49 0
-48 -49 0
48 109 -69 -25 0
49 -109 -69 -25 0
48 110 -69 -26 0
49 -110 -69 -26 0
48 111 -70 -25 0
49 -111 -70 -25 0
48 112 -70 -26 0
49 -112 -70 -26 0
4 5 0
-4 -5 0
4 113 0
5 -113 0
22 23 0
-22 -23 0
22 114 0
23 -114 0
10 11 0
-10 -11 0
10 115 0
11 -115 0
34 35 0
-34 -35 0
34 116 0
35 -116 0
16 17 0
-16 -17 0
16 117 0
17 -117 0
62 63 0
-62 -63 0
62 118 -79 0
63 -118 -79 0
62 119 -80 0
63 -119 -80 0
28 29 0
-28 -29 0
28 120 0
29 -120 0
40 41 0
-40 -41 0
40 121 0
41 -121 0
74 75 0
-74 -75 0
74 122 -85 0
75 -122 -85 0
74 123 -86 0
75 -123 -86 0
44 0